sat
(
    (define-fun x0y0 () Bool false)
    (define-fun x0y1 () Bool false)
    (define-fun x0y2 () Bool false)
    (define-fun x0y3 () Bool true)
    (define-fun x0y4 () Bool false)
    (define-fun x0y5 () Bool false)
    (define-fun x0y6 () Bool false)
    (define-fun x0y7 () Bool false)
    (define-fun x1y0 () Bool false)
    (define-fun x1y1 () Bool true)
    (define-fun x1y2 () Bool false)
    (define-fun x1y3 () Bool false)
    (define-fun x1y4 () Bool false)
    (define-fun x1y5 () Bool false)
    (define-fun x1y6 () Bool false)
    (define-fun x1y7 () Bool false)
    (define-fun x2y0 () Bool false)
    (define-fun x2y1 () Bool false)
    (define-fun x2y2 () Bool false)
    (define-fun x2y3 () Bool false)
    (define-fun x2y4 () Bool false)
    (define-fun x2y5 () Bool false)
    (define-fun x2y6 () Bool true)
    (define-fun x2y7 () Bool false)
    (define-fun x3y0 () Bool false)
    (define-fun x3y1 () Bool false)
    (define-fun x3y2 () Bool true)
    (define-fun x3y3 () Bool false)
    (define-fun x3y4 () Bool false)
    (define-fun x3y5 () Bool false)
    (define-fun x3y6 () Bool false)
    (define-fun x3y7 () Bool false)
    (define-fun x4y0 () Bool false)
    (define-fun x4y1 () Bool false)
    (define-fun x4y2 () Bool false)
    (define-fun x4y3 () Bool false)
    (define-fun x4y4 () Bool false)
    (define-fun x4y5 () Bool true)
    (define-fun x4y6 () Bool false)
    (define-fun x4y7 () Bool false)
    (define-fun x5y0 () Bool false)
    (define-fun x5y1 () Bool false)
    (define-fun x5y2 () Bool false)
    (define-fun x5y3 () Bool false)
    (define-fun x5y4 () Bool false)
    (define-fun x5y5 () Bool false)
    (define-fun x5y6 () Bool false)
    (define-fun x5y7 () Bool true)
    (define-fun x6y0 () Bool false)
    (define-fun x6y1 () Bool false)
    (define-fun x6y2 () Bool false)
    (define-fun x6y3 () Bool false)
    (define-fun x6y4 () Bool true)
    (define-fun x6y5 () Bool false)
    (define-fun x6y6 () Bool false)
    (define-fun x6y7 () Bool false)
    (define-fun x7y0 () Bool true)
    (define-fun x7y1 () Bool false)
    (define-fun x7y2 () Bool false)
    (define-fun x7y3 () Bool false)
    (define-fun x7y4 () Bool false)
    (define-fun x7y5 () Bool false)
    (define-fun x7y6 () Bool false)
    (define-fun x7y7 () Bool false)
)